185
0 112 151 107 154 93 176 26 77 83 
14 132 20 126 122 86 117 59 39 158 
78 146 109 43 119 38 7 79 181 1 
88 55 45 52 75 30 160 32 9 12 
34 153 125 106 143 174 62 47 120 61 
35 183 37 82 184 164 94 36 155 149 
128 81 17 110 4 90 51 182 92 33 
22 28 87 150 169 161 24 95 31 104 
91 130 3 168 165 134 162 74 69 10 
163 70 84 140 142 66 13 108 118 56 
6 103 141 171 29 159 48 50 98 113 
101 96 137 180 102 127 21 147 115 97 
58 49 175 173 53 129 167 80 157 54 
105 166 111 144 23 124 42 8 133 18 
67 156 136 138 19 148 121 152 85 46 
25 135 131 145 139 40 71 27 170 100 
76 41 57 99 177 178 72 11 89 68 
60 44 114 64 2 116 172 16 5 65 
15 73 123 63 179 
